DIMENSION :6
NODE_COORD_SECTION
1 -91.27665979895288 91.63711932672635
2 -3.9692286051403585 62.59561426677138
3 -40.631707603567136 31.98728820542368
4 -53.137271073289604 41.23635399573098
5 -63.07662673397747 -29.914341966911024
6 -5.5180026892660266 90.79616163206776
EOF
